/* SRSCHED */

/* Objective function */
max: +xtp_t1p1 +xtp_t2p2 +2 xtp_t3p1 +2 xtp_t3p2 +xtp_t3p3 +2 xtp_t4p3 +xtp_t4p4 +2 xtp_t5p4;

/* rule 1 */
r1_001: -x_t1p1s1 -x_t1p2s1 -x_t1p3s1 -x_t1p4s1 +xts_t1s1 <= 0;
r1_002: -x_t1p1s2 -x_t1p2s2 -x_t1p3s2 -x_t1p4s2 +xts_t1s2 <= 0;
r1_003: -x_t2p1s1 -x_t2p2s1 -x_t2p3s1 -x_t2p4s1 +xts_t2s1 <= 0;
r1_004: -x_t2p1s2 -x_t2p2s2 -x_t2p3s2 -x_t2p4s2 +xts_t2s2 <= 0;
r1_005: -x_t3p1s1 -x_t3p2s1 -x_t3p3s1 -x_t3p4s1 +xts_t3s1 <= 0;
r1_006: -x_t3p1s2 -x_t3p2s2 -x_t3p3s2 -x_t3p4s2 +xts_t3s2 <= 0;
r1_007: -x_t4p1s1 -x_t4p2s1 -x_t4p3s1 -x_t4p4s1 +xts_t4s1 <= 0;
r1_008: -x_t4p1s2 -x_t4p2s2 -x_t4p3s2 -x_t4p4s2 +xts_t4s2 <= 0;
r1_009: -x_t5p1s1 -x_t5p2s1 -x_t5p3s1 -x_t5p4s1 +xts_t5s1 <= 0;
r1_010: -x_t5p1s2 -x_t5p2s2 -x_t5p3s2 -x_t5p4s2 +xts_t5s2 <= 0;
/* rule 2 */
r2_001: -x_t1p1s1 +xts_t1s1 >= 0;
r2_002: -x_t1p1s2 +xts_t1s2 >= 0;
r2_003: -x_t1p2s1 +xts_t1s1 >= 0;
r2_004: -x_t1p2s2 +xts_t1s2 >= 0;
r2_005: -x_t1p3s1 +xts_t1s1 >= 0;
r2_006: -x_t1p3s2 +xts_t1s2 >= 0;
r2_007: -x_t1p4s1 +xts_t1s1 >= 0;
r2_008: -x_t1p4s2 +xts_t1s2 >= 0;
r2_009: -x_t2p1s1 +xts_t2s1 >= 0;
r2_010: -x_t2p1s2 +xts_t2s2 >= 0;
r2_011: -x_t2p2s1 +xts_t2s1 >= 0;
r2_012: -x_t2p2s2 +xts_t2s2 >= 0;
r2_013: -x_t2p3s1 +xts_t2s1 >= 0;
r2_014: -x_t2p3s2 +xts_t2s2 >= 0;
r2_015: -x_t2p4s1 +xts_t2s1 >= 0;
r2_016: -x_t2p4s2 +xts_t2s2 >= 0;
r2_017: -x_t3p1s1 +xts_t3s1 >= 0;
r2_018: -x_t3p1s2 +xts_t3s2 >= 0;
r2_019: -x_t3p2s1 +xts_t3s1 >= 0;
r2_020: -x_t3p2s2 +xts_t3s2 >= 0;
r2_021: -x_t3p3s1 +xts_t3s1 >= 0;
r2_022: -x_t3p3s2 +xts_t3s2 >= 0;
r2_023: -x_t3p4s1 +xts_t3s1 >= 0;
r2_024: -x_t3p4s2 +xts_t3s2 >= 0;
r2_025: -x_t4p1s1 +xts_t4s1 >= 0;
r2_026: -x_t4p1s2 +xts_t4s2 >= 0;
r2_027: -x_t4p2s1 +xts_t4s1 >= 0;
r2_028: -x_t4p2s2 +xts_t4s2 >= 0;
r2_029: -x_t4p3s1 +xts_t4s1 >= 0;
r2_030: -x_t4p3s2 +xts_t4s2 >= 0;
r2_031: -x_t4p4s1 +xts_t4s1 >= 0;
r2_032: -x_t4p4s2 +xts_t4s2 >= 0;
r2_033: -x_t5p1s1 +xts_t5s1 >= 0;
r2_034: -x_t5p1s2 +xts_t5s2 >= 0;
r2_035: -x_t5p2s1 +xts_t5s1 >= 0;
r2_036: -x_t5p2s2 +xts_t5s2 >= 0;
r2_037: -x_t5p3s1 +xts_t5s1 >= 0;
r2_038: -x_t5p3s2 +xts_t5s2 >= 0;
r2_039: -x_t5p4s1 +xts_t5s1 >= 0;
r2_040: -x_t5p4s2 +xts_t5s2 >= 0;
/* rule 3 */
r3_001: -x_t1p1s1 -x_t1p1s2 +xtp_t1p1 = 0;
r3_002: -x_t1p2s1 -x_t1p2s2 +xtp_t1p2 = 0;
r3_003: -x_t1p3s1 -x_t1p3s2 +xtp_t1p3 = 0;
r3_004: -x_t1p4s1 -x_t1p4s2 +xtp_t1p4 = 0;
r3_005: -x_t2p1s1 -x_t2p1s2 +xtp_t2p1 = 0;
r3_006: -x_t2p2s1 -x_t2p2s2 +xtp_t2p2 = 0;
r3_007: -x_t2p3s1 -x_t2p3s2 +xtp_t2p3 = 0;
r3_008: -x_t2p4s1 -x_t2p4s2 +xtp_t2p4 = 0;
r3_009: -x_t3p1s1 -x_t3p1s2 +xtp_t3p1 = 0;
r3_010: -x_t3p2s1 -x_t3p2s2 +xtp_t3p2 = 0;
r3_011: -x_t3p3s1 -x_t3p3s2 +xtp_t3p3 = 0;
r3_012: -x_t3p4s1 -x_t3p4s2 +xtp_t3p4 = 0;
r3_013: -x_t4p1s1 -x_t4p1s2 +xtp_t4p1 = 0;
r3_014: -x_t4p2s1 -x_t4p2s2 +xtp_t4p2 = 0;
r3_015: -x_t4p3s1 -x_t4p3s2 +xtp_t4p3 = 0;
r3_016: -x_t4p4s1 -x_t4p4s2 +xtp_t4p4 = 0;
r3_017: -x_t5p1s1 -x_t5p1s2 +xtp_t5p1 = 0;
r3_018: -x_t5p2s1 -x_t5p2s2 +xtp_t5p2 = 0;
r3_019: -x_t5p3s1 -x_t5p3s2 +xtp_t5p3 = 0;
r3_020: -x_t5p4s1 -x_t5p4s2 +xtp_t5p4 = 0;
/* rule 4 */
r4_001: +xts_t1s1 +xts_t1s2 = 1;
r4_002: +xts_t2s1 +xts_t2s2 = 1;
r4_003: +xts_t3s1 +xts_t3s2 = 1;
r4_004: +xts_t4s1 +xts_t4s2 = 1;
r4_005: +xts_t5s1 +xts_t5s2 = 1;
/* rule 5 */
r5_001: +xts_t1s1 +xts_t2s1 +xts_t3s1 +xts_t4s1 +xts_t5s1 <= 5;
r5_002: +xts_t1s2 +xts_t2s2 +xts_t3s2 +xts_t4s2 +xts_t5s2 <= 5;
r6_001: +xtp_t1p1 +xtp_t1p2 +xtp_t1p3 +xtp_t1p4 <= 4;
/* rule 6 */
r6_002: +xtp_t2p1 +xtp_t2p2 +xtp_t2p3 +xtp_t2p4 <= 4;
r6_003: +xtp_t3p1 +xtp_t3p2 +xtp_t3p3 +xtp_t3p4 <= 4;
r6_004: +xtp_t4p1 +xtp_t4p2 +xtp_t4p3 +xtp_t4p4 <= 4;
r6_005: +xtp_t5p1 +xtp_t5p2 +xtp_t5p3 +xtp_t5p4 <= 4;
/* rule 7 */
r7_001: +x_t1p1s1 +x_t2p1s1 +x_t3p1s1 +x_t4p1s1 +x_t5p1s1 = 1;
r7_002: +x_t1p1s2 +x_t2p1s2 +x_t3p1s2 +x_t4p1s2 +x_t5p1s2 = 1;
r7_003: +x_t1p2s1 +x_t2p2s1 +x_t3p2s1 +x_t4p2s1 +x_t5p2s1 = 1;
r7_004: +x_t1p2s2 +x_t2p2s2 +x_t3p2s2 +x_t4p2s2 +x_t5p2s2 = 1;
r7_005: +x_t1p3s1 +x_t2p3s1 +x_t3p3s1 +x_t4p3s1 +x_t5p3s1 = 1;
r7_006: +x_t1p3s2 +x_t2p3s2 +x_t3p3s2 +x_t4p3s2 +x_t5p3s2 = 1;
r7_007: +x_t1p4s1 +x_t2p4s1 +x_t3p4s1 +x_t4p4s1 +x_t5p4s1 = 1;
r7_008: +x_t1p4s2 +x_t2p4s2 +x_t3p4s2 +x_t4p4s2 +x_t5p4s2 = 1;

/* Variable bounds */
x_t1p1s1 <= 1;
x_t1p1s2 <= 1;
x_t1p2s1 <= 1;
x_t1p2s2 <= 1;
x_t1p3s1 <= 1;
x_t1p3s2 <= 1;
x_t1p4s1 <= 1;
x_t1p4s2 <= 1;
x_t2p1s1 <= 1;
x_t2p1s2 <= 1;
x_t2p2s1 <= 1;
x_t2p2s2 <= 1;
x_t2p3s1 <= 1;
x_t2p3s2 <= 1;
x_t2p4s1 <= 1;
x_t2p4s2 <= 1;
x_t3p1s1 <= 1;
x_t3p1s2 <= 1;
x_t3p2s1 <= 1;
x_t3p2s2 <= 1;
x_t3p3s1 <= 1;
x_t3p3s2 <= 1;
x_t3p4s1 <= 1;
x_t3p4s2 <= 1;
x_t4p1s1 <= 1;
x_t4p1s2 <= 1;
x_t4p2s1 <= 1;
x_t4p2s2 <= 1;
x_t4p3s1 <= 1;
x_t4p3s2 <= 1;
x_t4p4s1 <= 1;
x_t4p4s2 <= 1;
x_t5p1s1 <= 1;
x_t5p1s2 <= 1;
x_t5p2s1 <= 1;
x_t5p2s2 <= 1;
x_t5p3s1 <= 1;
x_t5p3s2 <= 1;
x_t5p4s1 <= 1;
x_t5p4s2 <= 1;
xtp_t1p1 <= 1;
xtp_t1p2 <= 1;
xtp_t1p3 <= 1;
xtp_t1p4 <= 1;
xtp_t2p1 <= 1;
xtp_t2p2 <= 1;
xtp_t2p3 <= 1;
xtp_t2p4 <= 1;
xtp_t3p1 <= 1;
xtp_t3p2 <= 1;
xtp_t3p3 <= 1;
xtp_t3p4 <= 1;
xtp_t4p1 <= 1;
xtp_t4p2 <= 1;
xtp_t4p3 <= 1;
xtp_t4p4 <= 1;
xtp_t5p1 <= 1;
xtp_t5p2 <= 1;
xtp_t5p3 <= 1;
xtp_t5p4 <= 1;
xts_t1s1 <= 1;
xts_t1s2 <= 1;
xts_t2s1 <= 1;
xts_t2s2 <= 1;
xts_t3s1 <= 1;
xts_t3s2 <= 1;
xts_t4s1 <= 1;
xts_t4s2 <= 1;
xts_t5s1 <= 1;
xts_t5s2 <= 1;

/* Integer definitions */
int x_t1p1s1,x_t1p1s2,x_t1p2s1,x_t1p2s2,x_t1p3s1,x_t1p3s2,x_t1p4s1,x_t1p4s2,x_t2p1s1,x_t2p1s2,x_t2p2s1,x_t2p2s2,x_t2p3s1,x_t2p3s2,x_t2p4s1,x_t2p4s2,x_t3p1s1,x_t3p1s2,x_t3p2s1,x_t3p2s2,x_t3p3s1,x_t3p3s2,x_t3p4s1,x_t3p4s2,x_t4p1s1,x_t4p1s2,x_t4p2s1,x_t4p2s2,x_t4p3s1,x_t4p3s2,x_t4p4s1,x_t4p4s2,x_t5p1s1,x_t5p1s2,x_t5p2s1,x_t5p2s2,x_t5p3s1,x_t5p3s2,x_t5p4s1,x_t5p4s2,xtp_t1p1,xtp_t1p2,xtp_t1p3,xtp_t1p4,xtp_t2p1,xtp_t2p2,xtp_t2p3,xtp_t2p4,xtp_t3p1,xtp_t3p2,xtp_t3p3,xtp_t3p4,xtp_t4p1,xtp_t4p2,xtp_t4p3,xtp_t4p4,xtp_t5p1,xtp_t5p2,xtp_t5p3,xtp_t5p4,xts_t1s1,xts_t1s2,xts_t2s1,xts_t2s2,xts_t3s1,xts_t3s2,xts_t4s1,xts_t4s2,xts_t5s1,xts_t5s2;
